TITL CF solution in Fm-3m
    NaCl.res
    created by SHELXL-2016/6 at 19:22:50 on 20-Jan-2022
CELL 0.71073 5.641087 5.641087 5.641087 90 90 90
ZERR 192 0.000051 0.000051 0.000051 0 0 0
LATT 4
SYMM -Y,+X,+Z
SYMM +X,-Y,-Z
SYMM +Z,+X,+Y
SYMM -X,-Y,+Z
SYMM -Y,-X,-Z
SYMM +Y,+X,-Z
SYMM +Z,-Y,+X
SYMM -X,+Z,+Y
SYMM -Z,+X,-Y
SYMM +Z,-X,-Y
SYMM +Y,+Z,+X
SYMM +Y,-X,+Z
SYMM -X,+Y,-Z
SYMM -Z,-X,+Y
SYMM -Z,-Y,-X
SYMM -X,-Z,-Y
SYMM +Z,+Y,-X
SYMM +X,+Z,-Y
SYMM -Z,+Y,+X
SYMM -Y,-Z,+X
SYMM +Y,-Z,-X
SYMM -Y,+Z,-X
SYMM +X,-Z,+Y
SFAC Cl Na
UNIT 4 4

L.S. 4
PLAN  5
SIZE 0.11 0.11 0.11
CONF
MORE -1
fmap 2
acta
REM <olex2.extras>
REM <HklSrc "%./NaCl.hkl">
REM </olex2.extras>

WGHT    0.017800
FVAR      12.01658
CL1   1    0.000000    0.000000    0.000000    10.02083    0.01793    0.01793 =
         0.01793    0.00000    0.00000    0.00000
NA1   2    0.500000    0.000000    0.000000    10.02083    0.02129    0.02129 =
         0.02129    0.00000    0.00000    0.00000
HKLF 4




REM  CF solution in Fm-3m
REM R1 =  0.0096 for     111 Fo > 4sig(Fo)  and  0.0096 for all     111 data
REM      3 parameters refined using      0 restraints

END  
     
WGHT      0.0178      0.0000 

REM Highest difference peak  0.156,  deepest hole -0.221,  1-sigma level  0.041
Q1    1   0.0609  0.0000  0.0609  10.25000  0.05    0.16
Q2    1   0.2500 -0.0748 -0.2500  10.25000  0.05    0.07
Q3    1  -0.1749 -0.1749  0.2449  10.50000  0.05    0.07
Q4    1  -0.2075 -0.2075  0.2075  10.16667  0.05    0.07
Q5    1   0.0000  0.0971  0.2003  10.50000  0.05    0.06

  REM The information below was added by Olex2.
  REM
  REM R1 = 0.0096 for 111 Fo > 4sig(Fo) and 0.0096 for all 8578 data
  REM 3 parameters refined using n/a restraints
  REM Highest difference peak 0.16, deepest hole -0.22
  REM Mean Shift 0, Max Shift 0.000.

  REM +++ Tabular Listing of Refinement Information +++
  REM R1_all = 0.0096
  REM R1_gt = 0.0096
  REM wR_ref = 0.0267
  REM GOOF = 1.346
  REM Shift_max = 0.000
  REM Shift_mean = 0
  REM Reflections_all = 8578
  REM Reflections_gt = 111
  REM Parameters = 3
  REM Hole = -0.22
  REM Peak = 0.16
  REM Flack = n/a

  
