data_I  
_audit_creation_method             'MoPro12'     
_chemical_name_systematic            ? 
_chemical_name_common                ? 
_chemical_formula_moiety   'C22 H29 Cl N2 O10'
_chemical_formula_sum      'C22 H29 Cl N2 O10'
_chemical_formula_weight             516.906
_chemical_absolute_configuration     ?  

_symmetry_cell_setting               orthorhombic 
_symmetry_space_group_name_H-M       'P ?'
_symmetry_space_group_name_Hall      'P ?'

loop_
_atom_type_symbol                      
_atom_type_description                 
_atom_type_scat_dispersion_real        
_atom_type_scat_dispersion_imag        
_atom_type_scat_source                 
 'C' 'C'    0.0033   0.0016
'Su & Coppens. Acta. Cryst. (1997) A53, 749-762. '                    
 'H' 'H'    0.0000   0.0000
'Su & Coppens. Acta. Cryst. (1997) A53, 749-762. '                    
 'N' 'N'    0.0061   0.0033
'Su & Coppens. Acta. Cryst. (1997) A53, 749-762. '                    
 'O' 'O'    0.0106   0.0060
'Su & Coppens. Acta. Cryst. (1997) A53, 749-762. '                    

loop_
_symmetry_equiv_pos_as_xyz           
'x, y, z'
'-x+1/2, -y, z+1/2'
'x+1/2, -y+1/2, -z'
'-x, y+1/2, -z+1/2'
_cell_length_a                  11.0792           
_cell_length_b                 12.67420(10)       
_cell_length_c                 16.67660(10)       
_cell_angle_alpha             90.                 
_cell_angle_beta              90.                 
_cell_angle_gamma             90.                 
_cell_volume                   2341.73(2)          
_cell_formula_units_Z                4
_cell_measurement_temperature        ?
_cell_measurement_reflns_used        ?
_cell_measurement_theta_min          ?
_cell_measurement_theta_max          ?
_exptl_crystal_description           ? 
_exptl_crystal_colour                ? 
_exptl_crystal_size_max              ? 
_exptl_crystal_size_mid              ? 
_exptl_crystal_size_min              ? 
_exptl_crystal_density_meas          ? 
_exptl_crystal_density_diffrn       1.467
_exptl_crystal_density_method       'not measured' 
_exptl_crystal_F_000                1088
_exptl_absorpt_process_details       ?  
_exptl_absorpt_coefficient_mu        ?  
_exptl_absorpt_correction_type       ?  
_exptl_absorpt_correction_T_min      ?  
_exptl_absorpt_correction_T_max      ?  
_exptl_special_details               
;
?
;
_diffrn_ambient_temperature          ?  
_diffrn_radiation_wavelength        0.71073
_diffrn_radiation_type              MoK\a 
_diffrn_radiation_source          'fine-focus sealed tube' 
_diffrn_radiation_monochromator      ? 
_diffrn_measurement_device_type      ? 
_diffrn_measurement_method           ? 
_diffrn_detector_area_resol_mean     ? 
_diffrn_standards_number             ? 
_diffrn_standards_interval_count     ? 
_diffrn_standards_interval_time      ? 
_diffrn_standards_decay_%            ? 
_diffrn_reflns_number                ? 
_diffrn_reflns_av_R_equivalents      ? 
_diffrn_reflns_av_sigmaI/netI        0.03383
_diffrn_reflns_limit_h_min           0
_diffrn_reflns_limit_h_max          28
_diffrn_reflns_limit_k_min           0
_diffrn_reflns_limit_k_max          32
_diffrn_reflns_limit_l_min         -42
_diffrn_reflns_limit_l_max          42
_diffrn_reflns_theta_min            2.02
_diffrn_reflns_theta_max           66.06
_reflns_number_total                 38836
_reflns_number_gt                    38836
_reflns_threshold_expression         >2.0sigma(I)
_computing_data_collection           ? 
_computing_cell_refinement           ? 
_computing_data_reduction            ? 
_computing_structure_solution        ? 
_computing_structure_refinement      'MoPro (J. Appl. Cryst. 2005, 38, 38-54)'
_computing_molecular_graphics        ? 
_computing_publication_material      ? 
_iucr_refine_instructions_details  
; 
#! MoPro 15.04 v01/04/2017 01:49:56 C:\Users\dantc\Desktop\tmp\exp_353_194.par
#! reflections hkl file : C:\Users\dantc\Desktop\tmp\sortav.hkl refin. vs. F^2
#! atomic table file : C:\Program Files (x86)\MoProSuite\LibMoPro\mopro.tab
#! wave functions file : C:\Program Files (x86)\MoProSuite\LibMoPro\WAVEF_Su_Cop
##pens_relativistic
#! Constraints file : C:\Users\dantc\Desktop\tmp\CONSTRAIN193.txt
#! RF factor = 3.158 % RI factor = 2.651%
#! wR2F factor = 3.419 % wR2I factor = 6.230%
#! g.o.f.(F**2) = 1.368 Nvar= 436 Nref= 38836 Nfree= 0 0.05<sinT/l< 1.29
#
#WSIG 1.00000 ! weighting scheme
# ! SPACE GROUP P ?
#
#CELL 11.0792 12.6742 16.6766 90.0000 90.0000 90.0000 0.71073
#ZERR 0.0000 0.0001 0.0001 0.0000 0.0000 0.0000
#
#SYMM 4 P
# X , Y, Z
# 1/2-X , -Y, 1/2+Z
# 1/2+X , 1/2-Y, -Z
# -X , 1/2+Y, 1/2-Z
#
#SCALE 1 4.684385
#
#FMULT 1.00000
#
#UOVER 0.00000 0.00000 0.00000 0.00000 0.00000 0.00000 ANI
#
#SOLVT 0.00000 50.00000
#
#EXTIN 0.00000 GAUSSIAN ISOT TYP1 ! G*10^4
#
#
#DUMMY 0
#
#KAPPA 30
# 1.377154 1.398696 ! # 1 1 MOL H4A 1x
# 1.323195 1.181670 ! # 2 1 MOL H4B 1x
# 1.160059 1.184490 ! # 3 1 MOL H4C 3x
# 1.203814 1.498650 ! # 4 1 MOL H5A 5x
# 1.271490 1.184010 ! # 5 1 MOL H5B 1x
# 1.097942 1.180640 ! # 6 1 MOL H7 3x
# 1.329816 1.394920 ! # 7 1 MOL H21B 2x
# 1.234522 1.183780 ! # 8 1 MOL H41A 6x
# 1.229838 1.177060 ! # 9 1 MOL H61A 3x
# 0.986587 0.878500 ! # 10 1 MOL C1 2x
# 1.002230 0.945090 ! # 11 1 MOL C2 4x
# 0.982463 0.900344 ! # 12 1 MOL C3 1x
# 1.014491 0.916560 ! # 13 1 MOL C4 1x
# 0.987921 0.863020 ! # 14 1 MOL C4A 3x
# 1.000220 0.953820 ! # 15 1 MOL C5 1x
# 0.990301 0.933240 ! # 16 1 MOL C7 3x
# 0.988948 0.919870 ! # 17 1 MOL C10 2x
# 1.015022 0.887714 ! # 18 1 MOL C12A 1x
# 1.003152 0.929370 ! # 19 1 MOL C21 1x
# 0.974842 0.961990 ! # 20 1 MOL C41 2x
# 0.984855 0.870530 ! # 21 1 MOL C61 1x
# 0.972403 0.684848 ! # 22 1 MOL N4 1x
# 0.964485 0.870200 ! # 23 1 MOL N21 1x
# 0.984556 0.950100 ! # 24 1 MOL O1 3x
# 0.984451 0.926820 ! # 25 1 MOL O5 3x
# 0.977272 1.632454 ! # 26 1 MOL O21 1x
# 1.211317 1.499840 ! # 27 1 MOL H2HA 4x
# 0.967398 0.963620 ! # 28 1 MOL O2H 2x
# 1.036684 0.972000 ! # 29 1 MOL Cl1 1x
# 0.988056 1.436164 ! # 30 1 MOL O12A 1x
#
#ATOMS 64
#
#ATOM 1 H4A MOL 1 0.098333 0.274944 0.663665 1.0000 1 H
# ZX N4 C4 QUA K1 V0 M0 Q0
#UANI 0.009130 0.022845 0.032149 -.001032 -.000390 0.003816
# 0.46742 0. 0. 0. 0.143 0.080 0. 0. 0. 0.
#
#ATOM 2 H4B MOL 1 0.195745 0.247268 0.789394 1.0000 1 H
# ZX C4 N4 QUA K2 V0 M0 Q0
#UANI 0.017495 0.021519 0.020004 -.002238 0.002396 0.001608
# 0.65135 0. 0. 0. 0.184 0.064 0. 0. 0. 0.
#
#ATOM 3 H4C MOL 1 0.417916 0.239305 0.707961 1.0000 1 H
# ZX C4A C12A QUA K3 V0 M0 Q0
#UANI 0.020923 0.016385 0.018001 0.004229 0.002128 -.002356
# 0.88035 0. 0. 0. 0.159 0.050 0. 0. 0. 0.
#
#ATOM 4 H5A MOL 1 0.371678 0.087201 0.816080 1.0000 1 H
# ZX O5 C5 QUA K4 V0 M0 Q0
#UANI 0.020704 0.015397 0.023756 -.003085 0.002269 -.005311
# 0.78320 0. 0. 0. 0.135 0.059 0. 0. 0. 0.
#
#ATOM 5 H5B MOL 1 0.372076 0.289234 0.887077 1.0000 1 H
# ZX C5 O5 QUA K5 V0 M0 Q0
#UANI 0.019618 0.021026 0.018783 0.002149 0.006896 -.006320
# 0.80668 0. 0. 0. 0.103 0.049 0. 0. 0. 0.
#
#ATOM 6 H5C MOL 1 0.555334 0.142551 0.813276 1.0000 1 H
# ZX C5A C5 QUA K3 V0 M0 Q0
#UANI 0.014864 0.022761 0.025110 0.000844 0.005295 -.007991
# 0.90240 0. 0. 0. 0.136 0.098 0. 0. 0. 0.
#
#ATOM 7 H6 MOL 1 0.580883 0.274876 0.967372 1.0000 1 H
# ZX C6 C5A QUA K3 V0 M0 Q0
#UANI 0.024576 0.016956 0.021245 0.002790 -.001300 -.006919
# 0.88153 0. 0. 0. 0.185 0.008 0. 0. 0. 0.
#
#ATOM 8 H7 MOL 1 0.695886 0.037684 1.023651 1.0000 1 H
# ZX C7 C6A QUA K6 V0 M0 Q0
#UANI 0.022206 0.027282 0.023319 0.004222 0.004787 0.008964
# 0.87717 0. 0. 0. 0.118 0.025 0. 0. 0. 0.
#
#ATOM 9 H8 MOL 1 0.914779 -0.015516 1.013125 1.0000 1 H
# ZX C8 C9 QUA K6 V0 M0 Q0
#UANI 0.025987 0.023713 0.030223 0.005245 -.005792 0.005501
# 0.86294 0. 0. 0. 0.143 0.031 0. 0. 0. 0.
#
#ATOM 10 H9 MOL 1 1.054562 0.080669 0.922319 1.0000 1 H
# ZX C9 C10 QUA K6 V0 M0 Q0
#UANI 0.018673 0.029638 0.040634 0.003475 -.005461 0.004493
# 0.84041 0. 0. 0. 0.178 0.015 0. 0. 0. 0.
#
#ATOM 11 H10 MOL 1 0.956769 0.293342 0.805596 1.0000 1 H
# ZX O10 C10 QUA K4 V0 M0 Q0
#UANI 0.018510 0.020462 0.037079 0.004674 -.000785 0.008696
# 0.72151 0. 0. 0. 0.139 0.054 0. 0. 0. 0.
#
#ATOM 12 H12A MOL 1 0.475827 0.400473 0.634516 1.0000 1 H
# ZX O12A C12A QUA K4 V0 M0 Q0
#UANI 0.026798 0.024877 0.013472 0.007939 0.004216 -.000882
# 0.74049 0. 0. 0. 0.167 0.119 0. 0. 0. 0.
#
#ATOM 13 H12B MOL 1 0.731014 0.430075 0.755408 1.0000 1 H
# ZX O12 C12 QUA K4 V0 M0 Q0
#UANI 0.015456 0.021068 0.033242 -.004552 -.001208 0.001601
# 0.68286 0. 0. 0. 0.095 0.127 0. 0. 0. 0.
#
#ATOM 14 H21A MOL 1 0.050415 0.513719 0.777670 1.0000 1 H
# ZX O21 C21 QUA K4 V0 M0 Q0
#UANI 0.016395 0.028036 0.028474 0.001062 -.001363 -.004620
# 0.67269 0. 0. 0. 0.108 0.155 0. 0. 0. 0.
#
#ATOM 15 H21B MOL 1 0.322607 0.657753 0.874066 1.0000 1 H
# ZX N21 C21 QUA K7 V0 M0 Q0
#UANI 0.019738 0.024334 0.029941 -.001738 -.006639 -.006531
# 0.61377 0. 0. 0. 0.112 0.093 0. 0. 0. 0.
#
#ATOM 16 H21C MOL 1 0.178639 0.721987 0.874751 1.0000 1 H
# ZX N21 C21 QUA K7 V0 M0 Q0
#UANI 0.020506 0.016674 0.038045 0.006973 0.004907 -.006355
# 0.56600 0. 0. 0. 0.081 0.096 0. 0. 0. 0.
#
#ATOM 17 H41A MOL 1 0.190241 0.279084 0.543228 1.0000 1 H
# ZX C41 N4 QUA K8 V0 M0 Q0
#UANI 0.029090 0.044809 0.013049 -.017670 -.002943 -.005085
# 0.72713 0. 0. 0. 0.118 0.055 0. 0. 0. 0.
#
#ATOM 18 H41B MOL 1 0.237044 0.394881 0.601231 1.0000 1 H
# ZX C41 N4 QUA K8 V0 M0 Q0
#UANI 0.031749 0.014523 0.031401 -.000532 0.001211 0.003971
# 0.67990 0. 0. 0. 0.138 0.063 0. 0. 0. 0.
#
#ATOM 19 H41C MOL 1 0.337685 0.285049 0.588422 1.0000 1 H
# ZX C41 N4 QUA K8 V0 M0 Q0
#UANI 0.017713 0.037960 0.028841 -.004051 -.001419 -.001150
# 0.80346 0. 0. 0. 0.156 0.028 0. 0. 0. 0.
#
#ATOM 20 H42A MOL 1 0.154827 0.113577 0.606274 1.0000 1 H
# ZX C42 N4 QUA K8 V0 M0 Q0
#UANI 0.029273 0.027768 0.035005 -.004241 -.012563 -.010925
# 0.68796 0. 0. 0. 0.158 0.035 0. 0. 0. 0.
#
#ATOM 21 H42B MOL 1 0.297583 0.119406 0.655895 1.0000 1 H
# ZX C42 N4 QUA K8 V0 M0 Q0
#UANI 0.026459 0.020377 0.047630 0.006747 0.000711 -.002504
# 0.74318 0. 0. 0. 0.186 -.005 0. 0. 0. 0.
#
#ATOM 22 H42C MOL 1 0.160682 0.106953 0.712624 1.0000 1 H
# ZX C42 N4 QUA K8 V0 M0 Q0
#UANI 0.031968 0.025039 0.031373 -.002873 0.004498 -.000494
# 0.74841 0. 0. 0. 0.111 0.107 0. 0. 0. 0.
#
#ATOM 23 H61A MOL 1 0.407268 0.152449 0.987705 1.0000 1 H
# ZX C61 C6 QUA K9 V0 M0 Q0
#UANI 0.018214 0.042777 0.027092 0.010076 0.001994 0.003646
# 0.87393 0. 0. 0. 0.205 0.112 0. 0. 0. 0.
#
#ATOM 24 H61B MOL 1 0.494042 0.040470 0.960440 1.0000 1 H
# ZX C61 C6 QUA K9 V0 M0 Q0
#UANI 0.029675 0.026217 0.034385 -.004404 0.003701 -.006672
# 0.84242 0. 0. 0. 0.234 0.110 0. 0. 0. 0.
#
#ATOM 25 H61C MOL 1 0.532241 0.118630 1.047231 1.0000 1 H
# ZX C61 C6 QUA K9 V0 M0 Q0
#UANI 0.038915 0.036465 0.014185 -.010244 -.005059 0.004126
# 0.75805 0. 0. 0. 0.136 0.036 0. 0. 0. 0.
#
#ATOM 26 C1 MOL 1 0.382034 0.481584 0.803431 1.0000 1 C
#bXY C12A C2 OCT K10 V0 M0 Q0
#UANI 0.008213 0.009488 0.010825 0.001017 0.000021 -.000743
# 4.23341 0. -.054 0.002 0.029 -.289 -.077 -.014 0.074 0.037
# -.073 -.018 -.014 0.050 0.030 -.380 0.039
#
#ATOM 27 C2 MOL 1 0.252091 0.486697 0.797219 1.0000 1 C
#bXY C21 C3 OCT K11 V0 M0 Q0
#UANI 0.008054 0.011151 0.012554 0.002156 0.000117 -.001132
# 3.95965 0. -.008 -.013 0.029 -.082 0.010 0.023 0.043 0.009
# -.026 -.034 0.021 -.060 -.026 -.233 -.017
#
#ATOM 28 C3 MOL 1 0.185794 0.406214 0.758696 1.0000 1 C
#bXY C4 C2 OCT K12 V0 M0 Q0
#UANI 0.007362 0.011968 0.012954 0.001738 -.000396 -.000712
# 4.32201 0. -.004 0.058 0.002 -.338 -.027 0.019 0.052 0.096
# -.034 0.008 0.062 0.075 -.031 -.384 0.026
#
#ATOM 29 C4 MOL 1 0.241004 0.298278 0.744413 1.0000 1 C
#bZX N4 C3 OCT K13 V0 M0 Q0
#UANI 0.006542 0.010577 0.012099 0.000288 -.000120 0.000259
# 3.83170 0. 0.087 -.043 -.095 0.023 0.099 0.018 -.092 0.024
# 0.005 -.035 0.101 0.363 -.001 -.012 -.045
#
#ATOM 30 C4A MOL 1 0.378159 0.289169 0.755882 1.0000 1 C
#bZX C12A C4 OCT K14 V0 M0 Q0
#UANI 0.006640 0.008396 0.010490 0.000077 0.000144 0.000015
# 4.15631 0. -.021 -.028 -.046 -.030 -.035 0.044 -.057 0.002
# -.022 0.006 0.048 0.448 0.001 -.010 -.028
#
#ATOM 31 C5 MOL 1 0.404568 0.236917 0.838257 1.0000 1 C
#bZX C5A C4A OCT K15 V0 M0 Q0
#UANI 0.007488 0.008251 0.010479 0.000020 0.000644 0.000327
# 4.11705 0. -.022 0.042 0.007 0. -.006 -.088 0.037 0.021
# -.013 0.007 0.019 0.403 -.013 -.022 -.029
#
#ATOM 32 C5A MOL 1 0.539544 0.214319 0.848853 1.0000 1 C
#bZX C6 C11A OCT K14 V0 M0 Q0
#UANI 0.007719 0.008412 0.010049 0.000387 0.000074 0.000119
# 4.17806 0. 0.016 -.003 0.029 0.050 0.001 0.039 -.061 -.005
# 0.018 0.025 -.047 0.440 0.001 -.011 -.027
#
#ATOM 33 C6 MOL 1 0.580305 0.195438 0.936610 1.0000 1 C
#bZX C5A C6A OCT K14 V0 M0 Q0
#UANI 0.011251 0.011044 0.010050 0.000981 -.000493 -.000437
# 4.16895 0. 0.081 -.054 0.007 0.003 0.012 0.071 -.002 -.040
# -.026 0.010 0.011 0.363 -.011 0.008 -.030
#
#ATOM 34 C6A MOL 1 0.711489 0.159695 0.933887 1.0000 1 C
#bXY C6 C10A OCT K11 V0 M0 Q0
#UANI 0.011397 0.011350 0.011618 0.001950 -.002589 -.000350
# 4.03024 0. -.045 0.078 0.059 -.207 -.006 0.014 0.006 0.031
# 0.022 -.001 0.044 -.065 -.002 -.256 -.012
#
#ATOM 35 C7 MOL 1 0.756582 0.079722 0.982371 1.0000 1 C
#bXY C6A C8 OCT K16 V0 M0 Q0
#UANI 0.017023 0.015038 0.014476 0.003698 -.004384 0.001875
# 4.18575 0. 0.027 0.008 0.057 -.152 0.009 0.048 -.007 -.016
# 0.018 0.061 -.013 -.001 -.024 -.289 0.074
#
#ATOM 36 C8 MOL 1 0.878563 0.050476 0.977678 1.0000 1 C
#bXY C9 C7 OCT K16 V0 M0 Q0
#UANI 0.017966 0.016040 0.018895 0.005346 -.007550 0.000151
# 4.22264 0. 0.006 -.007 -.037 -.227 -.021 -.005 0.007 0.032
# -.046 0.062 -.018 -.035 0.025 -.351 -.015
#
#ATOM 37 C9 MOL 1 0.957450 0.101511 0.926423 1.0000 1 C
#bXY C10 C8 OCT K16 V0 M0 Q0
#UANI 0.012898 0.015824 0.022898 0.004990 -.006463 -.002611
# 4.15312 0. -.012 0.005 -.022 -.134 -.018 -.021 0.056 0.041
# -.040 0.016 -.063 0.006 -.019 -.304 -.020
#
#ATOM 38 C10 MOL 1 0.915225 0.184193 0.878671 1.0000 1 C
#bXY C10A C9 OCT K17 V0 M0 Q0
#UANI 0.008836 0.013257 0.019539 0.002399 -.003417 -.002401
# 4.05204 0. 0.100 -.061 -.068 -.201 0.021 -.010 -.053 0.036
# -.033 0.045 -.044 -.019 -.031 -.344 0.041
#
#ATOM 39 C10A MOL 1 0.791658 0.211918 0.880689 1.0000 1 C
#bXY C10 C6A OCT K11 V0 M0 Q0
#UANI 0.008120 0.011195 0.015109 0.001502 -.002312 -.000598
# 4.10299 0. 0.027 0. 0.065 -.158 0.001 -.008 -.025 -.011
# 0.079 0.006 0.037 -.035 -.025 -.240 0.029
#
#ATOM 40 C11 MOL 1 0.745811 0.295818 0.829240 1.0000 1 C
#bXY C11A C10A OCT K10 V0 M0 Q0
#UANI 0.006976 0.010473 0.015482 0.000281 -.000859 0.000332
# 4.02611 0. -.034 -.058 -.051 -.323 0.001 0.005 0.024 -.006
# 0.026 0.062 -.068 -.064 0.030 -.398 -.020
#
#ATOM 41 C11A MOL 1 0.617245 0.301667 0.815096 1.0000 1 C
#bXY C12 C11 OCT K11 V0 M0 Q0
#UANI 0.006386 0.008946 0.012544 0.000181 -.000228 0.000862
# 3.98835 0. 0.007 -.041 0.018 -.102 -.011 0.002 -.004 0.009
# 0.012 0.018 -.051 0.028 0.005 -.255 0.013
#
#ATOM 42 C12 MOL 1 0.573910 0.383660 0.770095 1.0000 1 C
#bXY C12A C11A OCT K17 V0 M0 Q0
#UANI 0.006682 0.008367 0.012204 -.000146 0.000329 0.001067
# 4.15630 0. 0.047 0.090 -.009 -.218 0.043 0.012 -.025 0.007
# 0.027 0.045 0.006 -.013 -.017 -.341 0.013
#
#ATOM 43 C12A MOL 1 0.441715 0.396895 0.749500 1.0000 1 C
#bZX O12A C1 OCT K18 V0 M0 Q0
#UANI 0.006843 0.008250 0.010071 0.000358 0.000361 0.000387
# 3.77977 0. 0.028 0.028 -.032 -.035 0.082 -.011 -.045 0.011
# 0.014 -.031 0.012 0.408 0.007 -.057 -.005
#
#ATOM 44 C21 MOL 1 0.185424 0.578291 0.823808 1.0000 1 C
#bXY O21 N21 OCT K19 V0 M0 Q0
#UANI 0.010154 0.012624 0.014422 0.003458 0.000326 -.001670
# 3.97798 0. -.085 0.095 -.004 -.289 0.011 0.002 -.018 0.015
# 0.006 -.077 0.018 -.003 0.056 -.328 0.092
#
#ATOM 45 C41 MOL 1 0.243449 0.308899 0.593319 1.0000 1 C
# ZX N4 H41B OCT K20 V0 M0 Q0
#UANI 0.012398 0.022394 0.012855 -.003361 -.001857 -.000897
# 4.40362 0. 0.019 0.051 -.056 -.135 -.027 0.018 -.022 -.010
# 0.254 -.030 -.026 -.006 0.056 0.262 0.005
#
#ATOM 46 C42 MOL 1 0.201341 0.140207 0.659467 1.0000 1 C
# ZX N4 H42C OCT K20 V0 M0 Q0
#UANI 0.013393 0.013272 0.025530 -.000661 -.004225 -.004248
# 4.22066 0. 0.112 0.012 -.184 -.136 0.039 0.021 -.002 -.007
# 0.266 0.058 -.048 0.028 -.048 0.201 -.021
#
#ATOM 47 C61 MOL 1 0.499323 0.122220 0.985698 1.0000 1 C
# ZX C6 H61A OCT K21 V0 M0 Q0
#UANI 0.016660 0.015748 0.011609 0.000050 0.001601 0.001817
# 4.00496 0. -.027 0.114 -.041 -.054 -.010 0.012 -.029 -.004
# 0.304 0.038 -.015 0.021 0.013 0.212 -.031
#
#ATOM 48 N4 MOL 1 0.191317 0.257251 0.665956 1.0000 1 N
#bZX C42 C41 OCT K22 V0 M0 Q0
#UANI 0.007388 0.012496 0.014381 -.000229 -.001553 -.001315
# 5.39600 0. -.020 -.057 -.010 0.021 -.038 0.037 -.069 0.001
# -.045 -.059 -.012 0.470 0.004 -.002 -.059
#
#ATOM 49 N21 MOL 1 0.234670 0.658849 0.860577 1.0000 1 N
# XY C21 H21B OCT K23 V0 M0 Q0
#UANI 0.013228 0.013758 0.021080 0.003454 -.000123 -.005143
# 5.38780 0. -.012 -.005 0.022 -.039 -.029 0.021 -.005 -.037
# -.037 0.089 0.030 -.010 0.053 0.296 0.030
#
#ATOM 50 O1 MOL 1 0.444515 0.544909 0.840638 1.0000 1 O
# XY C1 C12A OCT K24 V0 M0 Q0
#UANI 0.010682 0.013057 0.017592 0.000692 -.001636 -.005247
# 6.14394 0. -.096 0.019 0.051 -.107 -.009 0.043 -.044 -.045
# 0. 0.021 -.008 -.007 -.008 0.052 -.007
#
#ATOM 51 O3 MOL 1 0.075417 0.413929 0.740802 1.0000 1 O
# XY C3 C4 OCT K24 V0 M0 Q0
#UANI 0.007870 0.016541 0.021275 0.003013 -.002931 -.003369
# 6.20817 0. -.048 0.009 0.007 -.063 0.017 0.021 -.086 -.029
# 0.016 0.014 -.017 0.008 -.029 0.034 -.028
#
#ATOM 52 O5 MOL 1 0.335430 0.142809 0.845731 1.0000 1 O
#bXY C5 H5A OCT K25 V0 M0 Q0
#UANI 0.009562 0.009039 0.015402 -.001356 0.001196 0.001384
# 6.31313 0. -.081 -.004 -.026 0.095 0. -.002 0.050 0.045
# -.018 -.017 0.049 0.002 0.002 -.077 -.006
#
#ATOM 53 O10 MOL 1 0.995982 0.234296 0.831878 1.0000 1 O
#bXY C10 C10A OCT K25 V0 M0 Q0
#UANI 0.007918 0.019027 0.028118 0.001877 -.000033 -.000057
# 6.29791 0. -.086 -.023 0.086 0.039 -.009 0.039 -.031 -.005
# 0.049 -.040 0.041 -.008 0.001 0.064 0.064
#
#ATOM 54 O11 MOL 1 0.818127 0.360505 0.796459 1.0000 1 O
# XY C11 C11A OCT K24 V0 M0 Q0
#UANI 0.007023 0.015482 0.024860 -.001234 -.000035 0.004777
# 6.31575 0. -.050 -.004 0.003 -.101 -.023 0.003 -.073 0.021
# 0.006 0.028 0.004 0.003 -.013 0.036 -.019
#
#ATOM 55 O12 MOL 1 0.645674 0.456533 0.738967 1.0000 1 O
#bXY C12 H12B OCT K25 V0 M0 Q0
#UANI 0.008061 0.010805 0.018774 -.001311 0.000732 0.003761
# 6.28034 0. -.093 0.023 -.025 0.026 0.032 -.019 0.002 0.072
# 0.004 -.033 -.018 0.027 -.021 -.052 -.010
#
#ATOM 56 O12A MOL 1 0.428646 0.443383 0.672963 1.0000 1 O
#bXY C12A H12A OCT K30 V0 M0 Q0
#UANI 0.010568 0.010534 0.010405 0.000742 0.000383 0.000994
# 6.29704 0. -.062 0.004 -.007 0.118 0.024 0.002 0.052 0.046
# -.003 0. -.012 0.019 -.016 -.029 0.008
#
#ATOM 57 O21 MOL 1 0.069221 0.582899 0.811133 1.0000 1 O
#bXY C21 H21A OCT K26 V0 M0 Q0
#UANI 0.010490 0.018234 0.024592 0.005484 -.001205 -.005513
# 6.30239 0. -.053 0.014 -.025 0.024 0.023 0.006 0.010 0.038
# -.039 0.031 -.065 -.010 -.012 -.064 0.002
#
#ATOM 58 H2HA MOL 1 0.091226 0.872330 0.914833 1.0000 1 H
# ZX O2H N21 QUA K27 V0 M0 Q0
#UANI 0.033202 0.018402 0.032339 -.000115 0.008032 0.000367
# 0.69814 0. 0. 0. 0.115 0.026 0. 0. 0. 0.
#
#ATOM 59 H2HB MOL 1 0.030633 0.781554 0.960559 1.0000 1 H
# ZX O2H N21 QUA K27 V0 M0 Q0
#UANI 0.025789 0.022415 0.024503 -.005299 0.001402 0.002116
# 0.65374 0. 0. 0. 0.160 0.089 0. 0. 0. 0.
#
#ATOM 60 O2H MOL 1 0.050056 0.805877 0.905642 1.0000 1 O
#bXY O1H N21 OCT K28 V0 M0 Q0
#UANI 0.014960 0.015234 0.018307 0.002440 0.002619 0.000909
# 6.50918 0. 0.083 0.005 -.005 -.023 -.056 0.037 0.032 -.010
# -.007 -.030 0.027 -.036 0.011 -.017 0.040
#
#ATOM 61 H1HA MOL 1 0.288355 0.923229 0.944123 1.0000 1 H
# ZX O1H H1HB QUA K27 V0 M0 Q0
#UANI 0.023955 0.022119 0.040521 0.006430 0.000802 0.010347
# 0.68627 0. 0. 0. 0.109 0.004 0. 0. 0. 0.
#
#ATOM 62 H1HB MOL 1 0.250821 1.033333 0.915559 1.0000 1 H
# ZX O1H H1HA QUA K27 V0 M0 Q0
#UANI 0.031650 0.023981 0.045395 -.000680 -.001624 0.006390
# 0.82653 0. 0. 0. 0.188 0.126 0. 0. 0. 0.
#
#ATOM 63 O1H MOL 1 0.219581 0.970231 0.939708 1.0000 1 O
#bXY H1HA H1HB OCT K28 V0 M0 Q0
#UANI 0.013533 0.020345 0.038173 0.001134 0.005513 0.006945
# 6.38610 0. -.058 -.124 0.027 0.147 0. 0.021 0.061 -.049
# -.051 0.021 0.073 0.005 -.003 -.050 0.002
#
#ATOM 64 Cl1 MOL 1 0.437536 0.804735 0.942811 1.0000 1 Cl-
#bZX O1H N21 HEX K29 V0 M0 Q0
#UANI 0.010788 0.018268 0.017112 -.000502 0.001961 0.005907
# 8.21072 0. -.053 0.051 0.002 0.027 0.066 -.035 -.029 -.018
# 0.037 0.048 0.005 0.084 -.102 -.011 -.073
# -.045 -.066 0.028 -.016 -.067 -.025 0.025 -.027 -.014
#
#ANHAR 1 3 ! number_of_anharmonic_atoms max_order
# 64 ! Cl1 1 ! atom_number
# 2.75E-05-6.19E-05 1.03E-05 2.89E-05 1.78E-04 4.80E-05 5.22E-05 2.33E-05
# 5.43E-05 1.94E-04
#
#
#STOP
; 
_refine_special_details              
;
 Refinement of F^2^ against reflections.
 The threshold expression of F^2^ > 2sigma(F^2^) is
 used for calculating R-factors(gt) and is not
 relevant to the choice of reflections for refinement.
 R-factors based on F^2^ are statistically about twice
 as large as those based on F, and R-factors based on
 ALL data will be even larger.
;
_refine_ls_structure_factor_coef     Fsqd 
_refine_ls_matrix_type                full
_refine_ls_weighting_scheme          sigma
_refine_ls_weighting_details         ?
_atom_sites_solution_primary      direct 
_atom_sites_solution_secondary    difmap 
_atom_sites_solution_hydrogens    difmap 
_refine_ls_hydrogen_treatment    refxyz
# refall refxyz hetero heteroxyz constr 

_refine_ls_extinction_method        'none'              
_refine_ls_abs_structure_details     ?
_refine_ls_abs_structure_Flack       ?
_refine_ls_number_reflns             38836
_refine_ls_number_parameters           436
_refine_ls_number_restraints             0
# R-factors: R(F)  &  wR2(I) 
_refine_ls_R_factor_all              0.0316
## R_factor_all computed for  I/sigmaI >   2.00
_refine_ls_R_factor_gt               0.0316
_refine_ls_wR_factor_ref             0.0623
_refine_ls_wR_factor_gt              0.0623
_refine_ls_goodness_of_fit_ref       1.247
# GOF computed assuming  all parameters refined:    1454
_refine_ls_restrained_S_all          0.000
_refine_ls_shift/su_max              0.038
_refine_ls_shift/su_mean             0.000

_diffrn_measured_fraction_theta_max     0.998
_diffrn_reflns_theta_full               66.06
_diffrn_measured_fraction_theta_full    0.998
_refine_diff_density_max                ?
_refine_diff_density_min                ?
_refine_diff_density_rms                ?
###  to get diff_density_max min & rms : 
###  run MoPro  : WRIT FOUR   to create FOURier file 
### run VMoPro : FOUR  FastFourierTransform  
### to get a 3D grid (Xplor format) on whole unit-cell
###  To get max min rms statistics
###  run VMoPro: GRID STAT   or 
###  open 3D xplor grid with MoProViewer 

loop_
_atom_site_type_symbol      
_atom_site_label            
_atom_site_fract_x          
_atom_site_fract_y          
_atom_site_fract_z          
_atom_site_U_iso_or_equiv   
_atom_site_adp_type         
_atom_site_occupancy        
_atom_site_calc_flag        
_atom_site_refinement_flags_posn  
_atom_site_refinement_flags_adp  
_atom_site_disorder_assembly
_atom_site_disorder_group   
H  H4A  0.098(14)  0.2749(10)  0.6637(8)  0.02137 Uani 1  d    D U  . .
H  H4B  0.1957(8)  0.2473(7)  0.789(14)  0.01967 Uani 1  d    D U  . .
H  H4C  0.4179(8)  0.2393(7)  0.708(14)  0.01844 Uani 1  d    D U  . .
H  H5A  0.3717(9)  0.087(14)  0.8161(6)  0.01995 Uani 1  d    D U  . .
H  H5B  0.3721(8)  0.2892(6)  0.887(14)  0.01981 Uani 1  d    D U  . .
H  H5C  0.5553(9)  0.143(14)  0.8133(5)  0.02091 Uani 1  d    D U  . .
H  H6  0.5809(10)  0.275(14)  0.9674(6)  0.02093 Uani 1  d    D U  . .
H  H7  0.6959(9)  0.0377(9)  1.024(14)  0.02427 Uani 1  d    D U  . .
H  H8  0.9148(11) -0.016(14)  1.0131(7)  0.02664 Uani 1  d    D U  . .
H  H9  1.055(14)  0.0807(11)  0.9223(9)  0.02965 Uani 1  d    D U  . .
H  H10  0.9568(9)  0.293(14)  0.8056(7)  0.02535 Uani 1  d    D U  . .
H  H12A  0.4758(8)  0.4005(7)  0.635(14)  0.02172 Uani 1  d    D U  . .
H  H12B  0.731(14)  0.4301(8)  0.7554(7)  0.02326 Uani 1  d    D U  . .
H  H21A  0.0504(10)  0.514(14)  0.7777(6)  0.02430 Uani 1  d    D U  . .
H  H21B  0.323(14)  0.6578(9)  0.8741(7)  0.02467 Uani 1  d    D U  . .
H  H21C  0.1786(9)  0.722(14)  0.8748(8)  0.02507 Uani 1  d    D U  . .
H  H41A  0.1902(10)  0.2791(10)  0.543(14)  0.02898 Uani 1  d    D U  . .
H  H41B  0.2370(12)  0.395(14)  0.6012(8)  0.02589 Uani 1  d    D U  . .
H  H41C  0.338(14)  0.2850(9)  0.5884(7)  0.02817 Uani 1  d    D U  . .
H  H42A  0.1548(11)  0.1136(10)  0.606(14)  0.03068 Uani 1  d    D U  . .
H  H42B  0.298(14)  0.1194(9)  0.6559(8)  0.03149 Uani 1  d    D U  . .
H  H42C  0.1607(10)  0.1070(9)  0.713(14)  0.02946 Uani 1  d    D U  . .
H  H61A  0.407(14)  0.1524(8)  0.9877(6)  0.02936 Uani 1  d    D U  . .
H  H61B  0.4940(9)  0.040(14)  0.9604(6)  0.03009 Uani 1  d    D U  . .
H  H61C  0.5322(11)  0.1186(10)  1.047(14)  0.02985 Uani 1  d    D U  . .
C  C1  0.38203(2)  0.48158(2)  0.803431(17)  0.009509(8) Uani 1  d    . .  . .
C  C2  0.25209(2)  0.48670(2)  0.797219(18)  0.010586(8) Uani 1  d    . .  . .
C  C3  0.18579(2)  0.40621(2)  0.758696(18)  0.010761(8) Uani 1  d    . .  . .
C  C4  0.24100(2)  0.29828(2)  0.744413(17)  0.009739(8) Uani 1  d    . .  . .
C C4A 0.37816(2) 0.28917(2) 0.755882(16) 0.008509(7) Uani 1 d . . . .
C  C5  0.40457(2)  0.23692(2)  0.838257(16)  0.008740(7) Uani 1  d    . .  . .
C C5A 0.53954(2) 0.21432(2) 0.848853(16) 0.008727(7) Uani 1 d . . . .
C  C6  0.58030(2)  0.19544(2)  0.936610(17)  0.010782(9) Uani 1  d    . .  . .
C C6A 0.71149(3) 0.15970(2) 0.933887(19) 0.011455(9) Uani 1 d . . . .
C  C7  0.75658(3)  0.07972(3)  0.98237(2)  0.015512(13) Uani 1  d    . .  . .
C  C8  0.87856(4)  0.05048(3)  0.97768(3)  0.017634(14) Uani 1  d    . .  . .
C  C9  0.95745(3)  0.10151(3)  0.92642(3)  0.017207(13) Uani 1  d    . .  . .
C  C10  0.91522(3)  0.18419(3)  0.87867(2)  0.013877(10) Uani 1  d    . .  . .
C  C10A  0.79166(2)  0.21192(2)  0.88069(2)  0.011475(9) Uani 1  d    . .  . .
C C11 0.74581(2) 0.29582(2) 0.829240(19) 0.010977(8) Uani 1 d . . . .
C C11A 0.61725(2) 0.30167(2) 0.815096(17) 0.009292(7) Uani 1 d . . . .
C C12 0.57391(2) 0.38366(2) 0.770095(17) 0.009084(7) Uani 1 d . . . .
C C12A 0.44171(2) 0.396895(19) 0.749500(16) 0.008388(7) Uani 1 d . . . .
C  C21  0.18542(3)  0.57829(3)  0.82381(2)  0.012400(9) Uani 1  d    . .  . .
C  C41  0.24345(3)  0.30890(4)  0.59332(2)  0.015882(12) Uani 1  d    . .  . .
C  C42  0.20134(3)  0.14021(3)  0.65947(3)  0.017399(12) Uani 1  d    . .  . .
C  C61  0.49932(3)  0.12222(3)  0.98570(2)  0.014672(12) Uani 1  d    . .  . .
N  N4  0.19132(2)  0.25725(2)  0.665956(17)  0.011422(8) Uani 1  d    . .  . .
N  N21  0.23467(3)  0.65885(3)  0.86058(2)  0.016022(11) Uani 1  d    . .  . .
O  O1  0.44451(2)  0.54491(2)  0.840638(17)  0.013777(8) Uani 1  d    . .  . .
O  O3  0.07542(2)  0.41393(2)  0.740802(19)  0.015229(9) Uani 1  d    . .  . .
O O5 0.335430(19) 0.142809(18) 0.845731(16) 0.011334(7) Uani 1 d . . . .
O  O10  0.99598(2)  0.23430(3)  0.83188(2)  0.018354(10) Uani 1  d    . .  . .
O  O11  0.81813(2)  0.36050(2)  0.79646(2)  0.015788(9) Uani 1  d    . .  . .
O O12 0.645674(19) 0.456533(19) 0.738967(17) 0.012547(7) Uani 1 d . . . .
O O12A 0.42865(2) 0.44338(2) 0.672963(14) 0.010503(9) Uani 1 d . . . .
O  O21  0.06922(3)  0.58290(3)  0.81113(2)  0.017772(10) Uani 1  d    . .  . .
H  H2HA  0.0912(11)  0.872(14)  0.9148(8)  0.02798 Uani 1  d    D U  . .
H  H2HB  0.0306(11)  0.7816(9)  0.961(14)  0.02424 Uani 1  d    D U  . .
O O2H 0.05006(3) 0.80588(2) 0.905642(19) 0.016167(10) Uani 1 d . . . .
H  H1HA  0.288(14)  0.9232(9)  0.9441(9)  0.02886 Uani 1  d    D U  . .
H  H1HB  0.2508(9)  1.033(14)  0.9156(6)  0.03368 Uani 1  d    D U  . .
O  O1H  0.21958(3)  0.97023(3)  0.93971(3)  0.024017(14) Uani 1  d    . .  . .
Cl Cl1 0.437536(7) 0.804735(8) 0.942811(6) 0.015389(3) Uani 1 d . . . .

loop_ 
_atom_site_aniso_label 
_atom_site_aniso_U_11 
_atom_site_aniso_U_22 
_atom_site_aniso_U_33 
_atom_site_aniso_U_12 
_atom_site_aniso_U_13 
_atom_site_aniso_U_23 
H4A  0.00913  0.02285  0.03215 -0.00103 -0.00039  0.00382
H4B  0.01750  0.02152  0.02000 -0.00224  0.00240  0.00161
H4C  0.02092  0.01639  0.01800  0.00423  0.00213 -0.00236
H5A  0.02070  0.01540  0.02376 -0.00308  0.00227 -0.00531
H5B  0.01962  0.02103  0.01878  0.00215  0.00690 -0.00632
H5C  0.01486  0.02276  0.02511  0.00084  0.00530 -0.00799
H6  0.02458  0.01696  0.02125  0.00279 -0.00130 -0.00692
H7  0.02221  0.02728  0.02332  0.00422  0.00479  0.00896
H8  0.02599  0.02371  0.03022  0.00525 -0.00579  0.00550
H9  0.01867  0.02964  0.04063  0.00347 -0.00546  0.00449
H10  0.01851  0.02046  0.03708  0.00467 -0.00078  0.00870
H12A  0.02680  0.02488  0.01347  0.00794  0.00422 -0.00088
H12B  0.01546  0.02107  0.03324 -0.00455 -0.00121  0.00160
H21A  0.01640  0.02804  0.02847  0.00106 -0.00136 -0.00462
H21B  0.01974  0.02433  0.02994 -0.00174 -0.00664 -0.00653
H21C  0.02051  0.01667  0.03805  0.00697  0.00491 -0.00635
H41A  0.02909  0.04481  0.01305 -0.01767 -0.00294 -0.00508
H41B  0.03175  0.01452  0.03140 -0.00053  0.00121  0.00397
H41C  0.01771  0.03796  0.02884 -0.00405 -0.00142 -0.00115
H42A  0.02927  0.02777  0.03500 -0.00424 -0.01256 -0.01092
H42B  0.02646  0.02038  0.04763  0.00675  0.00071 -0.00250
H42C  0.03197  0.02504  0.03137 -0.00287  0.00450 -0.00049
H61A  0.01821  0.04278  0.02709  0.01008  0.00199  0.00365
H61B  0.02968  0.02622  0.03438 -0.00440  0.00370 -0.00667
H61C  0.03892  0.03647  0.01419 -0.01024 -0.00506  0.00413
C1  0.00821(6)  0.00949(7)  0.01083(7)  0.00102(5)  0.00002(5) -0.00074(6)
C2  0.00805(6)  0.01115(8)  0.01255(8)  0.00216(5)  0.00012(5) -0.00113(6)
C3  0.00736(6)  0.01197(8)  0.01295(8)  0.00174(5) -0.00040(5) -0.00071(6)
C4  0.00654(5)  0.01058(7)  0.01210(7)  0.00029(5) -0.00012(5)  0.00026(6)
C4A  0.00664(5)  0.00840(6)  0.01049(7)  0.00008(4)  0.00014(5)  0.00001(5)
C5  0.00749(5)  0.00825(6)  0.01048(7)  0.00002(4)  0.00064(5)  0.00033(5)
C5A  0.00772(5)  0.00841(6)  0.01005(7)  0.00039(5)  0.00007(5)  0.00012(5)
C6  0.01125(7)  0.01104(7)  0.01005(7)  0.00098(6) -0.00049(5) -0.00044(6)
C6A  0.01140(7)  0.01135(8)  0.01162(8)  0.00195(6) -0.00259(6) -0.00035(6)
C7  0.01702(10)  0.01504(10)  0.01448(10)  0.00370(8) -0.00438(8)  0.00188(8)
C8  0.01797(11)  0.01604(11)  0.01889(13)  0.00535(9) -0.00755(10)  0.00015(9)
C9  0.01290(9)  0.01582(11)  0.02290(14)  0.00499(8) -0.00646(9) -0.00261(10)
C10  0.00884(7)  0.01326(9)  0.01954(11)  0.00240(6) -0.00342(7) -0.00240(8)
C10A  0.00812(6)  0.01120(8)  0.01511(9)  0.00150(5) -0.00231(6) -0.00060(7)
C11  0.00698(5)  0.01047(7)  0.01548(9)  0.00028(5) -0.00086(5)  0.00033(6)
C11A  0.00639(5)  0.00895(7)  0.01254(8)  0.00018(5) -0.00023(5)  0.00086(6)
C12  0.00668(5)  0.00837(6)  0.01220(7) -0.00015(5)  0.00033(5)  0.00107(5)
C12A  0.00684(5)  0.00825(6)  0.01007(7)  0.00036(4)  0.00036(5)  0.00039(5)
C21  0.01015(7)  0.01262(8)  0.01442(9)  0.00346(6)  0.00033(6) -0.00167(7)
C41  0.01240(8)  0.02239(13)  0.01286(9) -0.00336(9) -0.00186(7) -0.00090(9)
C42  0.01339(9)  0.01327(10)  0.02553(15) -0.00066(7) -0.00423(9) -0.00425(10)
C61  0.01666(10)  0.01575(10)  0.01161(9)  0.00005(8)  0.00160(7)  0.00182(8)
N4  0.00739(5)  0.01250(7)  0.01438(8) -0.00023(5) -0.00155(5) -0.00132(6)
N21  0.01323(8)  0.01376(9)  0.02108(12)  0.00345(6) -0.00012(7) -0.00514(8)
O1  0.01068(6)  0.01306(7)  0.01759(8)  0.00069(5) -0.00164(6) -0.00525(6)
O3  0.00787(5)  0.01654(8)  0.02128(10)  0.00301(5) -0.00293(6) -0.00337(7)
O5  0.00956(5)  0.00904(6)  0.01540(7) -0.00136(4)  0.00120(5)  0.00138(5)
O10  0.00792(6)  0.01903(10)  0.02812(14)  0.00188(6) -0.00003(7) -0.00006(9)
O11  0.00702(5)  0.01548(8)  0.02486(11) -0.00123(5) -0.00003(6)  0.00478(7)
O12  0.00806(5)  0.01081(6)  0.01877(9) -0.00131(4)  0.00073(5)  0.00376(6)
O12A  0.01057(8)  0.01053(6)  0.01041(8)  0.00074(5)  0.00038(5)  0.00099(5)
O21  0.01049(7)  0.01823(9)  0.02459(12)  0.00548(6) -0.00120(7) -0.00551(8)
H2HA  0.03320  0.01840  0.03234 -0.00012  0.00803  0.00037
H2HB  0.02579  0.02241  0.02450 -0.00530  0.00140  0.00212
O2H  0.01496(7)  0.01523(8)  0.01831(9)  0.00244(7)  0.00262(6)  0.00091(7)
H1HA  0.02396  0.02212  0.04052  0.00643  0.00080  0.01035
H1HB  0.03165  0.02398  0.04540 -0.00068 -0.00162  0.00639
O1H  0.01353(8)  0.02035(12)  0.0382(2)  0.00113(8)  0.00551(11)  0.00694(12)
Cl1  0.01079(2)  0.01827(3)  0.01711(3) -0.000502(19)  0.001961(19)  0.00591(2)

_geom_special_details                
;                                    
;                                    

loop_
_geom_bond_atom_site_label_1         
_geom_bond_atom_site_label_2         
_geom_bond_distance                  
_geom_bond_site_symmetry_2           
_geom_bond_publ_flag                 
H4A    N4     1.05(7)  .         ? 
H4B    C4     1.11(7)  .         ? 
H4C    C4A    1.11(7)  .         ? 
H5A    O5     0.95(7)  .         ? 
H5B    C5     1.11(7)  .         ? 
H5C    C5A    1.10(6)  .         ? 
H6     C6     1.13(7)  .         ? 
H7     C7     1.10(6)  .         ? 
H8     C8     1.10(6)  .         ? 
H9     C9     1.11(7)  .         ? 
H10    O10    0.97(7)  .         ? 
H12A   O12A   0.99(7)  .         ? 
H12B   O12    1.04(7)  .         ? 
H21A   O21    1.06(7)  .         ? 
H21B   N21    1.00(7)  .         ? 
H21C   N21    1.04(6)  .         ? 
H41A   C41    1.09(8)  .         ? 
H41B   C41    1.10(8)  .         ? 
H41C   C41    1.09(7)  .         ? 
H42A   C42    1.08(9)  .         ? 
H42B   C42    1.10(7)  .         ? 
H42C   C42    1.08(9)  .         ? 
H61A   C61    1.09(6)  .         ? 
H61B   C61    1.12(7)  .         ? 
H61C   C61    1.09(10)  .         ? 
C1     O1     1.22815(15)  .         ? 
C1     C12A   1.54862(12)  .         ? 
C1     C2     1.44484(12)  .         ? 
C2     C21    1.44562(14)  .         ? 
C2     C3     1.41165(15)  .         ? 
C3     O3     1.26256(13)  .         ? 
C3     C4     1.51734(13)  .         ? 
C4     N4     1.51174(13)  .         ? 
C4     C4A    1.53590(10)  .         ? 
C4A    C12A   1.53990(11)  .         ? 
C4A    C5     1.55284(12)  .         ? 
C5     O5     1.42300(12)  .         ? 
C5     C5A    1.53281(11)  .         ? 
C5A    C6     1.55016(12)  .         ? 
C5A    C11A   1.51116(12)  .         ? 
C6     C6A    1.52306(13)  .         ? 
C6     C61    1.52848(15)  .         ? 
C6A    C10A   1.41918(16)  .         ? 
C6A    C7     1.38951(16)  .         ? 
C7     C8     1.40355(19)  .         ? 
C8     C9     1.3831(2)  .         ? 
C9     C10    1.39684(19)  .         ? 
C10    O10    1.34638(19)  .         ? 
C10    C10A   1.41379(13)  .         ? 
C10A   C11    1.45771(14)  .         ? 
C11    O11    1.27000(15)  .         ? 
C11    C11A   1.44571(11)  .         ? 
C11A   C12    1.36882(14)  .         ? 
C12    O12    1.32464(13)  .         ? 
C12    C12A   1.51367(11)  .         ? 
C12A   O12A   1.41325(13)  .         ? 
C21    O21    1.30599(16)  .         ? 
C21    N21    1.31001(18)  .         ? 
C41    N4     1.49313(16)  .         ? 
C42    N4     1.49153(15)  .         ? 
H2HA   O2H    0.97(8)  .         ? 
H2HB   O2H    0.99(11)  .         ? 
H1HA   O1H    0.97(6)  .         ? 
H1HB   O1H    0.96(7)  .         ? 

loop_
_geom_angle_atom_site_label_1        
_geom_angle_atom_site_label_2        
_geom_angle_atom_site_label_3        
_geom_angle                          
_geom_angle_site_symmetry_1          
_geom_angle_site_symmetry_2          
_geom_angle_site_symmetry_3          
_geom_angle_publ_flag                
O1    C1    C12A     120.38(10)   .      .  .       ? 
O1    C1    C2       124.65(11)   .      .  .       ? 
C12A  C1    C2        114.51(9)   .      .  .       ? 
C21   C2    C3       117.00(10)   .      .  .       ? 
C21   C2    C1       121.54(10)   .      .  .       ? 
C3    C2    C1       121.24(10)   .      .  .       ? 
O3    C3    C4       115.04(10)   .      .  .       ? 
O3    C3    C2       123.75(11)   .      .  .       ? 
C4    C3    C2       120.87(10)   .      .  .       ? 
N4    C4    C3        107.41(9)   .      .  .       ? 
N4    C4    C4A       116.24(9)   .      .  .       ? 
N4    C4    H4B        103.(38)   .      .  .       ? 
C4A   C4    H4B        109.(15)   .      .  .       ? 
C12A  C4A   C5        110.68(8)   .      .  .       ? 
C12A  C4A   C4        112.16(8)   .      .  .       ? 
C12A  C4A   H4C        106.(12)   .      .  .       ? 
C5    C4A   C4        109.19(8)   .      .  .       ? 
C5    C4A   H4C        109.(39)   .      .  .       ? 
O5    C5    C5A       111.00(8)   .      .  .       ? 
O5    C5    C4A       109.48(8)   .      .  .       ? 
O5    C5    H5B        105.(12)   .      .  .       ? 
C5A   C5    C4A       111.44(8)   .      .  .       ? 
C5A   C5    H5B        110.(16)   .      .  .       ? 
C6    C5A   C11A      107.39(9)   .      .  .       ? 
C6    C5A   H5C        110.(15)   .      .  .       ? 
C11A  C5A   H5C        108.(24)   .      .  .       ? 
C6A   C6    C61      113.30(10)   .      .  .       ? 
C6A   C6    H6         106.(10)   .      .  .       ? 
C61   C6    H6         108.(19)   .      .  .       ? 
C10A  C6A   C7       118.62(12)   .      .  .       ? 
C8    C7    H7         120.(16)   .      .  .       ? 
C9    C8    C7       121.29(16)   .      .  .       ? 
C9    C8    H8         117.(17)   .      .  .       ? 
C10   C9    C8       119.44(15)   .      .  .       ? 
C10   C9    H9         118.(15)   .      .  .       ? 
O10   C10   C10A     122.69(12)   .      .  .       ? 
O10   C10   C9       117.50(14)   .      .  .       ? 
C10A  C10   C9       119.81(13)   .      .  .       ? 
C11   C10A  C6A      119.35(11)   .      .  .       ? 
O11   C11   C11A     121.21(10)   .      .  .       ? 
O11   C11   C10A     120.29(11)   .      .  .       ? 
C11A  C11   C10A     118.47(10)   .      .  .       ? 
C12   C11A  C11       118.29(9)   .      .  .       ? 
C12   C11A  C5A      124.10(10)   .      .  .       ? 
O12   C12   C12A      114.49(9)   .      .  .       ? 
O12   C12   C11A     122.25(10)   .      .  .       ? 
C12A  C12   C11A      123.22(9)   .      .  .       ? 
O12A  C12A  C12       110.50(9)   .      .  .       ? 
O12A  C12A  C1        101.06(8)   .      .  .       ? 
O12A  C12A  C4A       112.66(9)   .      .  .       ? 
O21   C21   N21      116.84(12)   .      .  .       ? 
O21   C21   C2       119.34(12)   .      .  .       ? 
N21   C21   C2       123.82(12)   .      .  .       ? 
N4    C41   H41C       108.(12)   .      .  .       ? 
N4    C41   H41A       105.(36)   .      .  .       ? 
N4    C41   H41B       108.(15)   .      .  .       ? 
N4    C42   H42A       110.(13)   .      .  .       ? 
N4    C42   H42C       107.(15)   .      .  .       ? 
N4    C42   H42B        108.(9)   .      .  .       ? 

loop_
_geom_torsion_atom_site_label_1      
_geom_torsion_atom_site_label_2      
_geom_torsion_atom_site_label_3      
_geom_torsion_atom_site_label_4      
_geom_torsion_site_symmetry_1        
_geom_torsion_site_symmetry_2        
_geom_torsion_site_symmetry_3        
_geom_torsion_site_symmetry_4        
_geom_torsion                        
_geom_torsion_publ_flag              
H4A   N4    C4    C3     . . . .  -42.(5) ?
H4A   N4    C4    C4A    . . . . -174.6(7) ?
H4A   N4    C4    H4B    . . . .  67.(4) ?
H4A   N4    C42   H42A   . . . .  55.(6) ?
H4A   N4    C42   H42C   . . . .  -66.(5) ?
H4A   N4    C42   H42B   . . . .  175.(1) ?
H4A   N4    C41   H41C   . . . .  -173.(2) ?
H4A   N4    C41   H41A   . . . .  -54.(7) ?
H4A   N4    C41   H41B   . . . .  68.(3) ?
H4B   C4    N4    C42    . . . .  -50.(5) ?
H4B   C4    N4    C41    . . . .  -177.(6) ?
H4B   C4    C3    O3     . . . .  -68.(4) ?
H4B   C4    C3    C2     . . . .  106.(8) ?
H4B   C4    C4A   C12A   . . . .  -138.(9) ?
H4B   C4    C4A   C5     . . . .  -15.(7) ?
H4B   C4    C4A   H4C    . . . .  105.(11) ?
H4C   C4A   C12A  O12A   . . . .  57.(10) ?
H4C   C4A   C12A  C12    . . . .  -66.(5) ?
H4C   C4A   C12A  C1     . . . .  171.(5) ?
H4C   C4A   C5    O5     . . . .  -70.(2) ?
H4C   C4A   C5    C5A    . . . .  53.(5) ?
H4C   C4A   C5    H5B    . . . .  175.(3) ?
H4C   C4A   C4    N4     . . . .  -11.(6) ?
H4C   C4A   C4    C3     . . . .  -139.(10) ?
H5A   O5    C5    C5A    . . . .  -45.(4) ?
H5A   O5    C5    C4A    . . . .  78.(5) ?
H5A   O5    C5    H5B    . . . .  -164.(8) ?
H5B   C5    C5A   C6     . . . .  40.(11) ?
H5B   C5    C5A   C11A   . . . .  -83.(4) ?
H5B   C5    C5A   H5C    . . . .  160.(7) ?
H5B   C5    C4A   C12A   . . . .  59.(4) ?
H5B   C5    C4A   C4     . . . .  -64.(3) ?
H5C   C5A   C5    O5     . . . .  44.(8) ?
H5C   C5A   C5    C4A    . . . .  -78.(4) ?
H5C   C5A   C6    C6A    . . . .  55.(3) ?
H5C   C5A   C6    C61    . . . .  -72.(5) ?
H5C   C5A   C6    H6     . . . .  168.(4) ?
H5C   C5A   C11A  C12    . . . .  106.(6) ?
H5C   C5A   C11A  C11    . . . .  -72.2(9) ?
H6    C6    C5A   C5     . . . .  -74.(2) ?
H6    C6    C5A   C11A   . . . .  51.(6) ?
H6    C6    C6A   C10A   . . . .  -72.(4) ?
H6    C6    C6A   C7     . . . .  107.(6) ?
H6    C6    C61   H61A   . . . .  61.(4) ?
H6    C6    C61   H61C   . . . .  -57.(7) ?
H6    C6    C61   H61B   . . . .  -179.(4) ?
H7    C7    C6A   C6     . . . .  2.(3) ?
H7    C7    C6A   C10A   . . . . -179.44(7) ?
H7    C7    C8    C9     . . . .  180.0(4) ?
H7    C7    C8    H8     . . . .  2.(3) ?
H8    C8    C9    C10    . . . .  178.5(4) ?
H8    C8    C9    H9     . . . .  -3.(2) ?
H8    C8    C7    C6A    . . . .  -177.(1) ?
H9    C9    C10   O10    . . . .  -1.(1) ?
H9    C9    C10   C10A   . . . .  178.63(13) ?
H9    C9    C8    C7     . . . .  179.0(2) ?
H10   O10   C10   C10A   . . . .  5.(3) ?
H10   O10   C10   C9     . . . . -175.1(5) ?
H12A  O12A  C12A  C12    . . . .  54.(6) ?
H12A  O12A  C12A  C1     . . . .  171.(2) ?
H12A  O12A  C12A  C4A    . . . .  -69.(2) ?
H12B  O12   C12   C12A   . . . .  -175.(2) ?
H12B  O12   C12   C11A   . . . .  3.(3) ?
H21A  O21   C21   N21    . . . .  176.1(10) ?
H21A  O21   C21   C2     . . . .  -4.(3) ?
H21B  N21   C21   O21    . . . .  177.1(5) ?
H21B  N21   C21   C2     . . . .  -2.9(10) ?
H21C  N21   C21   O21    . . . .  -3.(5) ?
H21C  N21   C21   C2     . . . .  177.(1) ?
H41A  C41   N4    C4     . . . .  -172.(4) ?
H41A  C41   N4    C42    . . . .  60.(3) ?
H41B  C41   N4    C4     . . . .  -51.(4) ?
H41B  C41   N4    C42    . . . . -178.2(2) ?
H41C  C41   N4    C4     . . . .  69.(3) ?
H41C  C41   N4    C42    . . . .  -59.(3) ?
H42A  C42   N4    C4     . . . .  173.(2) ?
H42A  C42   N4    C41    . . . .  -59.(9) ?
H42B  C42   N4    C4     . . . .  -67.(3) ?
H42B  C42   N4    C41    . . . .  62.(3) ?
H42C  C42   N4    C4     . . . .  53.(10) ?
H42C  C42   N4    C41    . . . . -178.7(4) ?
H61A  C61   C6    C5A    . . . .  -58.(2) ?
H61A  C61   C6    C6A    . . . .  178.0(6) ?
H61B  C61   C6    C5A    . . . .  62.(3) ?
H61B  C61   C6    C6A    . . . .  -62.(2) ?
H61C  C61   C6    C5A    . . . . -176.1(4) ?
H61C  C61   C6    C6A    . . . .  60.(4) ?
C1    C12A  C12   O12    . . . .  -79.98(2) ?
C1    C12A  C12   C11A   . . . .  101.92(2) ?
C1    C12A  C4A   C5     . . . .  -71.715(19) ?
C1    C12A  C4A   C4     . . . .  50.49(2) ?
C1    C2    C21   O21    . . . .  174.533(19) ?
C1    C2    C21   N21    . . . .  -5.46(2) ?
C1    C2    C3    O3     . . . . -168.81(2) ?
C1    C2    C3    C4     . . . .  18.216(18) ?
C2    C3    C4    N4     . . . . -145.93(4) ?
C2    C3    C4    C4A    . . . .  -13.489(18) ?
C2    C1    C12A  O12A   . . . .  72.73(2) ?
C2    C1    C12A  C12    . . . . -170.06(2) ?
C2    C1    C12A  C4A    . . . .  -47.55(2) ?
C3    C4    N4    C42    . . . . -159.05(7) ?
C3    C4    N4    C41    . . . .  74.35(3) ?
C3    C4    C4A   C12A   . . . .  -21.12(2) ?
C3    C4    C4A   C5     . . . .  101.93(2) ?
C3    C2    C21   O21    . . . .  -0.23(2) ?
C3    C2    C21   N21    . . . .  179.778(19) ?
C3    C2    C1    O1     . . . . -174.870(14) ?
C3    C2    C1    C12A   . . . .  12.933(17) ?
C4    C3    C2    C21    . . . . -167.00(2) ?
C4    C4A   C12A  O12A   . . . .  -62.82(2) ?
C4    C4A   C12A  C12    . . . .  174.02(2) ?
C4    C4A   C5    O5     . . . .  50.34(2) ?
C4    C4A   C5    C5A    . . . .  173.53(2) ?
C4A   C12A  C12   O12    . . . .  155.73(5) ?
C4A   C12A  C12   C11A   . . . .  -22.37(2) ?
C4A   C12A  C1    O1     . . . .  139.88(4) ?
C4A   C5    C5A   C6     . . . .  161.80(2) ?
C4A   C5    C5A   C11A   . . . .  38.81(2) ?
C4A   C4    N4    C42    . . . .  68.35(2) ?
C4A   C4    N4    C41    . . . .  -58.26(2) ?
C4A   C4    C3    O3     . . . .  172.955(13) ?
C5    C5A   C6    C6A    . . . .  172.34(2) ?
C5    C5A   C6    C61    . . . .  45.11(2) ?
C5    C5A   C11A  C12    . . . .  -8.939(17) ?
C5    C5A   C11A  C11    . . . .  173.19(2) ?
C5    C4A   C12A  O12A   . . . .  174.977(13) ?
C5    C4A   C12A  C12    . . . .  51.81(2) ?
C5    C4A   C4    N4     . . . . -129.80(3) ?
C5A   C5    C4A   C12A   . . . .  -62.542(19) ?
C5A   C6    C6A   C10A   . . . .  42.29(3) ?
C5A   C6    C6A   C7     . . . . -139.07(4) ?
C5A   C11A  C12   O12    . . . . -177.329(7) ?
C5A   C11A  C12   C12A   . . . .  0.631(16) ?
C5A   C11A  C11   O11    . . . .  173.206(14) ?
C5A   C11A  C11   C10A   . . . .  -5.265(18) ?
C6    C5A   C5    O5     . . . .  -75.88(2) ?
C6    C5A   C11A  C12    . . . . -136.11(3) ?
C6    C5A   C11A  C11    . . . .  46.03(2) ?
C6    C6A   C10A  C10    . . . .  177.366(14) ?
C6    C6A   C10A  C11    . . . .  -1.47(2) ?
C6    C6A   C7    C8     . . . . -179.585(14) ?
C6A   C6    C5A   C11A   . . . .  -62.20(2) ?
C6A   C10A  C10   O10    . . . . -177.07(2) ?
C6A   C10A  C10   C9     . . . .  3.14(2) ?
C6A   C10A  C11   O11    . . . .  162.49(3) ?
C6A   C10A  C11   C11A   . . . .  -19.025(19) ?
C6A   C7    C8    C9     . . . .  1.47(2) ?
C7    C6A   C6    C61    . . . .  -10.64(2) ?
C7    C6A   C10A  C10    . . . .  -1.33(3) ?
C7    C6A   C10A  C11    . . . .  179.842(7) ?
C7    C8    C9    C10    . . . .  0.36(3) ?
C8    C9    C10   O10    . . . .  177.56(3) ?
C8    C9    C10   C10A   . . . .  -2.64(2) ?
C8    C7    C6A   C10A   . . . .  -0.95(2) ?
C9    C10   C10A  C11    . . . . -178.036(16) ?
C10   C10A  C11   O11    . . . .  -16.34(2) ?
C10   C10A  C11   C11A   . . . .  162.14(2) ?
C10A  C11   C11A  C12    . . . .  176.740(15) ?
C10A  C6A   C6    C61    . . . .  170.73(2) ?
C11   C11A  C12   O12    . . . .  0.524(19) ?
C11   C11A  C12   C12A   . . . .  178.485(19) ?
C11   C10A  C10   O10    . . . .  1.76(2) ?
C11A  C12   C12A  O12A   . . . . -146.81(4) ?
C11A  C5A   C5    O5     . . . .  161.13(2) ?
C11A  C5A   C6    C61    . . . .  170.57(2) ?
C12   C12A  C1    O1     . . . .  17.375(19) ?
C12   C11A  C11   O11    . . . .  -4.789(19) ?
C12A  C1    C2    C21    . . . . -161.61(2) ?
C12A  C4A   C5    O5     . . . .  174.268(14) ?
C12A  C4A   C4    N4     . . . .  107.15(2) ?
C21   C2    C3    O3     . . . .  5.97(2) ?
C21   C2    C1    O1     . . . .  10.59(2) ?
N4    C4    C3    O3     . . . .  40.52(3) ?
O1    C1    C12A  O12A   . . . .  -99.83(2) ?
O12   C12   C12A  O12A   . . . .  31.30(3) ?

loop_
_geom_hbond_atom_site_label_D        
_geom_hbond_atom_site_label_H        
_geom_hbond_atom_site_label_A        
_geom_hbond_distance_DH              
_geom_hbond_distance_HA              
_geom_hbond_distance_DA              
_geom_hbond_angle_DHA                
_geom_hbond_site_symmetry_A          
C4    H4B   O10   1.11(7) 2.330(15) 3.18660(6)  133.(8)   1_455   
O2H   H2HB  Cl1   0.99(11) 2.20(4) 3.14749(5)  159.(3)   3_467   
N4    H4A   O2H   1.05(7) 2.05(3) 2.99281(7)  148.(14)  4_546   
C42   H42C  O21   1.08(9) 2.596(7) 3.12307(8)  109.(7)   4_546   
N4    H4A   O3    1.05(7) 2.196(5) 2.67396(7)  105.(4)   1_555   
C4    H4B   O5    1.11(7) 2.24(2) 2.79858(7)  108.(6)   1_555   
O10   H10   C11   0.97(7) 2.370(2) 2.87962(6)  112.(5)   1_555   
O10   H10   O11   0.97(7) 1.76(2) 2.60584(7)  143.(11)  1_555   
O12   H12B  C11   1.04(7) 2.107(4) 2.76520(7)  119.(6)   1_555   
O12   H12B  O11   1.04(7) 1.48(3) 2.45991(7)  155.(4)   1_555   
O21   H21A  C3    1.06(7) 2.05(3) 2.72900(8)  119.(7)   1_555   
O21   H21A  O3    1.06(7) 1.43(5) 2.44267(9)  157.(3)   1_555   
N21   H21B  O1    1.00(7) 2.04(2) 2.75703(7)  126.(8)   1_555   
N21   H21B  Cl1   1.00(7) 2.531(15) 3.21731(6)  126.(7)   1_555   
N21   H21C  O2H   1.04(6) 1.85(3) 2.86721(7)  165.(4)   1_555   
C41   H41B  C3    1.10(8) 2.691(3) 3.08795(8)  101.(4)   1_555   
C41   H41B  O12A  1.10(8) 2.513(9) 2.97982(7)  104.(5)   1_555   
C61   H61A  O5    1.09(6) 2.501(10) 2.96876(8)  105.(4)   1_555   
O2H   H2HA  O1H   0.97(8) 1.93(3) 2.86173(9)  160.(3)   1_555   
O1H   H1HA  Cl1   0.97(6) 2.23(2) 3.19897(6)  173.5(7)   1_555   
C8    H8    O1    1.10(6) 2.489(6) 3.34299(8)  134.(7)   3_557   
C41   H41A  Cl1   1.09(8) 2.44(3) 3.52063(5)  173.(2)   2_564   
O1H   H1HB  O5    0.96(7) 2.04(3) 2.98123(7)  166.(3)   1_565   
C9    H9    O1H   1.11(7) 2.32(3) 3.35439(7)  154.(1)   1_645   
O5    H5A   O12   0.95(7) 1.90(4) 2.75912(6)  149.(17)  4_646   
C5A   H5C   O12A  1.10(6) 2.54(3) 3.47106(6)  142.(14)  4_646   
O12A  H12A  Cl1   0.99(7) 2.01(4) 3.00228(5)  175.74(18)  4_646   
C41   H41C  Cl1   1.09(7) 2.56(3) 3.58581(5)  157.(1)   4_646   
C61   H61B  O12A  1.12(7) 2.683(15) 3.57426(7)  136.(9)   4_646   
O10   H10   O3    0.97(7) 2.29(3) 2.87485(9)  118.(7)   1_655   
C41   H41B  C8    1.10(8) 2.69(2) 3.55017(9)  134.(10)  4_656   

loop_
_publ_author_name      
_publ_author_address   
,'?'  
; ? 
;  

_publ_requested_journal          '?' 
_publ_contact_author                ? 
_publ_contact_author_phone        '?' 
_publ_contact_author_fax          '?' 
_publ_contact_author_email        '?' 
_publ_section_title 
;  
 ?  
;  
_publ_section_comment  
;  
 ?  
;  
_publ_section_references 
;  
 ?  
;  
