
    exp_353.res created by SHELXL-2014/7

TITL exp_353 in P212121 #19
REM reset to P212121 #19
CELL 0.71073 11.079172 12.674218 16.676627 90 90 90
ZERR 4 0.000043 0.000067 0.000098 0 0 0
LATT -1
SYMM 0.5-X,-Y,0.5+Z
SYMM 0.5+X,0.5-Y,-Z
SYMM -X,0.5+Y,0.5-Z
SFAC C H Cl N O
UNIT 88 116 4 8 40
 
L.S. 1 0 0
PLAN  100
BOND
MORE -1
BOND $H
CONF
fmap 2 53
acta 52
REM <olex2.extras>
REM <HklSrc "%.\\exp_353.hkl">
REM </olex2.extras>
 
WGHT    0.100000
FVAR       4.66550
H4A   2   -0.886692   -0.729372   -0.331198    11.00000    0.03198
H4B   2   -0.796443   -0.742018   -0.215829    11.00000    0.02498
H4C   2   -0.585757   -0.756409   -0.287473    11.00000    0.02244
H5A   2   -0.627767   -0.906634   -0.182480    11.00000    0.03365
H5B   2   -0.624300   -0.723329   -0.119002    11.00000    0.00949
H5C   2   -0.447871   -0.845882   -0.177959    11.00000    0.01271
H6    2   -0.422209   -0.733514   -0.039442    11.00000    0.01941
H7    2   -0.297794   -0.960578    0.021927    11.00000    0.04161
H8    2   -0.091511   -1.002713    0.004916    11.00000    0.02722
H9    2    0.033541   -0.915626   -0.078642    11.00000    0.03103
H10   2   -0.030258   -0.713271   -0.186760    11.00000    0.05057
H12A  2   -0.531240   -0.597193   -0.360874    11.00000    0.02431
H12B  2   -0.266964   -0.579990   -0.252122    11.00000    0.07783
H21A  2   -0.948391   -0.479864   -0.207820    11.00000    0.04621
H21B  2   -0.689785   -0.342712   -0.126248    11.00000    0.01110
H21C  2   -0.814614   -0.284003   -0.138761    11.00000    0.04101
H41A  2   -0.801387   -0.718988   -0.447121    11.00000    0.03967
H41B  2   -0.761173   -0.626091   -0.398882    11.00000    0.03287
H41C  2   -0.672869   -0.711052   -0.415871    11.00000    0.02224
H42A  2   -0.841149   -0.881545   -0.388131    11.00000    0.02370
H42B  2   -0.710972   -0.878544   -0.347561    11.00000    0.04052
H42C  2   -0.842712   -0.888244   -0.297567    11.00000    0.03125
H61A  2   -0.575611   -0.851210   -0.011903    11.00000    0.02848
H61B  2   -0.505547   -0.945812   -0.037199    11.00000    0.01684
H61C  2   -0.477067   -0.876608    0.044531    11.00000    0.02890
C1    1   -0.617960   -0.518393   -0.196598    11.00000    0.00806    0.00923 =
         0.01063   -0.00058   -0.00001    0.00106
C2    1   -0.747907   -0.513273   -0.202789    11.00000    0.00787    0.01094 =
         0.01231   -0.00101    0.00020    0.00216
C3    1   -0.814221   -0.593727   -0.241311    11.00000    0.00725    0.01165 =
         0.01271   -0.00052   -0.00020    0.00174
C4    1   -0.758980   -0.701689   -0.255567    11.00000    0.00637    0.01041 =
         0.01196    0.00008   -0.00022    0.00024
C4A   1   -0.621817   -0.710833   -0.244077    11.00000    0.00638    0.00812 =
         0.01054    0.00001    0.00010    0.00009
C5    1   -0.595468   -0.763070   -0.161707    11.00000    0.00718    0.00812 =
         0.01056    0.00033    0.00065   -0.00011
C5A   1   -0.460411   -0.785676   -0.151133    11.00000    0.00750    0.00824 =
         0.00994    0.00015    0.00008    0.00042
C6    1   -0.419680   -0.804557   -0.063408    11.00000    0.01105    0.01079 =
         0.00996   -0.00045   -0.00051    0.00106
C6A   1   -0.288470   -0.840279   -0.066093    11.00000    0.01126    0.01103 =
         0.01151   -0.00062   -0.00281    0.00196
C7    1   -0.243400   -0.920292   -0.017613    11.00000    0.01692    0.01468 =
         0.01442    0.00172   -0.00446    0.00367
C8    1   -0.121379   -0.949552   -0.022370    11.00000    0.01783    0.01573 =
         0.01876    0.00000   -0.00758    0.00525
C9    1   -0.042620   -0.898522   -0.073527    11.00000    0.01289    0.01556 =
         0.02264   -0.00276   -0.00658    0.00508
C10   1   -0.084783   -0.815790   -0.121277    11.00000    0.00873    0.01295 =
         0.01944   -0.00271   -0.00351    0.00237
C10A  1   -0.208329   -0.788112   -0.119301    11.00000    0.00795    0.01090 =
         0.01507   -0.00071   -0.00231    0.00141
C11   1   -0.254169   -0.704139   -0.170788    11.00000    0.00689    0.01016 =
         0.01525    0.00012   -0.00090    0.00025
C11A  1   -0.382759   -0.698283   -0.184930    11.00000    0.00618    0.00880 =
         0.01247    0.00090   -0.00024    0.00015
C12   1   -0.426093   -0.616341   -0.229907    11.00000    0.00650    0.00805 =
         0.01215    0.00091    0.00036   -0.00015
C12A  1   -0.558303   -0.603138   -0.250483    11.00000    0.00665    0.00811 =
         0.01009    0.00047    0.00040    0.00035
C21   1   -0.814577   -0.421670   -0.176172    11.00000    0.01000    0.01254 =
         0.01410   -0.00139    0.00038    0.00352
C41   1   -0.756569   -0.691081   -0.406639    11.00000    0.01227    0.02222 =
         0.01258   -0.00073   -0.00170   -0.00351
C42   1   -0.798700   -0.859801   -0.340498    11.00000    0.01328    0.01256 =
         0.02562   -0.00404   -0.00431   -0.00065
C61   1   -0.500742   -0.877809   -0.014317    11.00000    0.01622    0.01550 =
         0.01153    0.00173    0.00159    0.00003
N4    4   -0.808692   -0.742773   -0.334067    11.00000    0.00712    0.01216 =
         0.01427   -0.00123   -0.00154   -0.00020
N21   4   -0.765397   -0.341237   -0.139427    11.00000    0.01298    0.01331 =
         0.02117   -0.00501    0.00003    0.00334
O1    5   -0.555419   -0.455092   -0.159329    11.00000    0.01064    0.01279 =
         0.01727   -0.00514   -0.00148    0.00066
O3    5   -0.924610   -0.586127   -0.259241    11.00000    0.00760    0.01646 =
         0.02121   -0.00316   -0.00292    0.00308
O5    5   -0.664609   -0.857169   -0.154222    11.00000    0.00936    0.00862 =
         0.01560    0.00133    0.00128   -0.00143
O10   5   -0.003958   -0.765747   -0.168120    11.00000    0.00765    0.01859 =
         0.02835   -0.00012    0.00006    0.00193
O11   5   -0.181848   -0.639501   -0.203509    11.00000    0.00706    0.01500 =
         0.02456    0.00439    0.00015   -0.00128
O12   5   -0.354392   -0.543431   -0.261073    11.00000    0.00781    0.01050 =
         0.01895    0.00382    0.00077   -0.00141
O12A  5   -0.571402   -0.556520   -0.327079    11.00000    0.01096    0.01041 =
         0.00963    0.00124    0.00053    0.00109
O21   5   -0.930899   -0.417131   -0.188711    11.00000    0.01004    0.01778 =
         0.02505   -0.00548   -0.00146    0.00556
H2HA  2   -0.903219   -0.150491   -0.090188    11.00000    0.05474
H2HB  2   -0.965451   -0.220018   -0.060394    11.00000    0.03711
O2H   5   -0.949872   -0.194113   -0.094410    11.00000    0.01493    0.01489 =
         0.01819    0.00118    0.00281    0.00247
H1HA  2   -0.724137   -0.073688   -0.066003    11.00000    0.04752
H1HB  2   -0.758661    0.026782   -0.084928    11.00000    0.04970
O1H   5   -0.780433   -0.029891   -0.060302    11.00000    0.01351    0.01975 =
         0.03849    0.00715    0.00557    0.00122
CL1   3   -0.562620   -0.195217   -0.057259    11.00000    0.01052    0.01794 =
         0.01710    0.00586    0.00199   -0.00048
HKLF 4
 
REM  exp_353 in P212121 #19
REM R1 =  0.0384 for   38515 Fo > 4sig(Fo)  and  0.0428 for all   41620 data
REM    432 parameters refined using      0 restraints
 
END  
     
WGHT      0.0457      0.0895 

REM Highest difference peak  0.644,  deepest hole -0.437,  1-sigma level  0.068
Q1    1  -0.5350 -0.1763 -0.0377  11.00000  0.05    0.64
Q2    1  -0.5124 -0.1971 -0.0547  11.00000  0.05    0.51
Q3    1  -0.3075 -0.6995 -0.1785  11.00000  0.05    0.51
Q4    1  -0.1433 -0.8019 -0.1206  11.00000  0.05    0.47
Q5    1  -0.7815 -0.5617 -0.2205  11.00000  0.05    0.45
Q6    1  -0.5171 -0.4609 -0.1588  11.00000  0.05    0.45
Q7    1  -0.4028 -0.6570 -0.2044  11.00000  0.05    0.44
Q8    1  -0.6755 -0.5166 -0.1986  11.00000  0.05    0.43
Q9    1  -0.1841 -0.9342 -0.0251  11.00000  0.05    0.43
Q10   1  -0.5610 -0.1870 -0.1014  11.00000  0.05    0.42
Q11   1  -0.4429 -0.7980 -0.1049  11.00000  0.05    0.41
Q12   1  -0.2681 -0.8778 -0.0400  11.00000  0.05    0.41
Q13   1  -0.2222 -0.6602 -0.1829  11.00000  0.05    0.40
Q14   1  -0.0830 -0.9192 -0.0540  11.00000  0.05    0.40
Q15   1  -0.0614 -0.8599 -0.0993  11.00000  0.05    0.40
Q16   1  -0.7866 -0.3828 -0.1574  11.00000  0.05    0.40
Q17   1  -0.6166 -0.1964 -0.0583  11.00000  0.05    0.40
Q18   1  -0.8675 -0.5940 -0.2533  11.00000  0.05    0.40
Q19   1  -0.5859 -0.5612 -0.2234  11.00000  0.05    0.39
Q20   1  -0.7016 -0.8575 -0.1595  11.00000  0.05    0.39
Q21   1  -0.5427 -0.1596 -0.0781  11.00000  0.05    0.39
Q22   1  -0.4798 -0.6159 -0.2384  11.00000  0.05    0.39
Q23   1  -0.7850 -0.4645 -0.1830  11.00000  0.05    0.38
Q24   1  -0.5364 -0.7779 -0.1556  11.00000  0.05    0.38
Q25   1  -0.2449 -0.8084 -0.0993  11.00000  0.05    0.38
Q26   1  -0.2307 -0.7409 -0.1430  11.00000  0.05    0.38
Q27   1  -0.1393 -0.6404 -0.1992  11.00000  0.05    0.38
Q28   1  -0.5772 -0.4967 -0.1799  11.00000  0.05    0.37
Q29   1  -0.5606 -0.2177 -0.0200  11.00000  0.05    0.37
Q30   1  -0.3611 -0.8211 -0.0656  11.00000  0.05    0.36
Q31   1  -0.6130 -0.5458 -0.3236  11.00000  0.05    0.36
Q32   1  -0.6055 -0.7413 -0.2019  11.00000  0.05    0.36
Q33   1  -0.3108 -0.5422 -0.2560  11.00000  0.05    0.36
Q34   1  -0.4260 -0.7381 -0.1661  11.00000  0.05    0.35
Q35   1  -0.8689 -0.4187 -0.1802  11.00000  0.05    0.35
Q36   1  -0.5754 -0.5229 -0.3206  11.00000  0.05    0.34
Q37   1  -0.4578 -0.8420 -0.0407  11.00000  0.05    0.34
Q38   1  -0.5125 -0.6021 -0.2437  11.00000  0.05    0.33
Q39   1  -0.5930 -0.6580 -0.2464  11.00000  0.05    0.33
Q40   1  -0.0388 -0.7930 -0.1427  11.00000  0.05    0.32
Q41   1  -0.7127 -0.7068 -0.2545  11.00000  0.05    0.32
Q42   1  -0.6832 -0.7015 -0.2457  11.00000  0.05    0.32
Q43   1  -0.7565 -0.8638 -0.3398  11.00000  0.05    0.31
Q44   1  -0.8972 -0.2008 -0.1024  11.00000  0.05    0.30
Q45   1   0.0373 -0.7806 -0.1734  11.00000  0.05    0.30
Q46   1  -0.3912 -0.5769 -0.2467  11.00000  0.05    0.29
Q47   1  -0.6605 -0.8797 -0.1245  11.00000  0.05    0.29
Q48   1  -0.8000 -0.8824 -0.3175  11.00000  0.05    0.29
Q49   1  -0.7790 -0.6573 -0.2456  11.00000  0.05    0.28
Q50   1  -0.5249 -0.5633 -0.3346  11.00000  0.05    0.28
Q51   1  -0.9436 -0.3840 -0.1795  11.00000  0.05    0.28
Q52   1  -0.7225 -0.3426 -0.1296  11.00000  0.05    0.28
Q53   1  -0.2855 -0.9387  0.0062  11.00000  0.05    0.27
Q54   1  -0.9382 -0.6191 -0.2730  11.00000  0.05    0.27
Q55   1  -0.8046 -0.7877 -0.3404  11.00000  0.05    0.27
Q56   1  -0.7944 -0.7208 -0.2982  11.00000  0.05    0.26
Q57   1  -0.0118 -0.7781 -0.1993  11.00000  0.05    0.26
Q58   1  -0.9379 -0.5571 -0.2396  11.00000  0.05    0.26
Q59   1  -0.5638 -0.5966 -0.3030  11.00000  0.05    0.26
Q60   1  -0.6254 -0.8188 -0.1577  11.00000  0.05    0.26
Q61   1  -0.7659 -0.7165 -0.3013  11.00000  0.05    0.26
Q62   1  -0.9504 -0.6198 -0.2479  11.00000  0.05    0.26
Q63   1  -0.9185 -0.1821 -0.0789  11.00000  0.05    0.26
Q64   1  -0.8482 -0.7357 -0.3393  11.00000  0.05    0.25
Q65   1  -0.7835 -0.7231 -0.3626  11.00000  0.05    0.25
Q66   1  -0.0436 -0.9197 -0.1023  11.00000  0.05    0.25
Q67   1  -0.8036 -0.0414 -0.0360  11.00000  0.05    0.25
Q68   1  -0.3599 -0.5052 -0.2596  11.00000  0.05    0.25
Q69   1  -0.6191 -0.7248 -0.1423  11.00000  0.05    0.25
Q70   1  -0.8995 -0.4005 -0.1971  11.00000  0.05    0.25
Q71   1  -0.9266 -0.1319 -0.0792  11.00000  0.05    0.24
Q72   1  -0.6660 -0.8895 -0.1818  11.00000  0.05    0.24
Q73   1  -0.6360 -0.6975 -0.1140  11.00000  0.05    0.24
Q74   1  -0.9377 -0.4489 -0.2169  11.00000  0.05    0.24
Q75   1  -0.7806 -0.7003 -0.4420  11.00000  0.05    0.24
Q76   1  -0.4085 -0.7574 -0.0465  11.00000  0.05    0.23
Q77   1  -0.5621 -0.5819 -0.3579  11.00000  0.05    0.23
Q78   1  -0.4360 -0.7638 -0.0305  11.00000  0.05    0.23
Q79   1  -0.3812 -0.5371 -0.2830  11.00000  0.05    0.23
Q80   1  -0.7965 -0.2942 -0.1141  11.00000  0.05    0.23
Q81   1  -0.7845 -0.7369 -0.2393  11.00000  0.05    0.22
Q82   1  -0.5984 -0.7721 -0.2013  11.00000  0.05    0.22
Q83   1  -0.5661 -0.4200 -0.1476  11.00000  0.05    0.22
Q84   1  -0.9245 -0.4397 -0.1595  11.00000  0.05    0.22
Q85   1  -0.6136 -0.7378 -0.2343  11.00000  0.05    0.22
Q86   1  -0.4818 -0.8917  0.0194  11.00000  0.05    0.21
Q87   1  -0.5365 -0.4423 -0.1212  11.00000  0.05    0.21
Q88   1  -0.6097 -0.6861 -0.1022  11.00000  0.05    0.21
Q89   1  -0.4396 -0.8434 -0.1992  11.00000  0.05    0.21
Q90   1  -0.8387  0.0395  0.0663  11.00000  0.05    0.21
Q91   1  -0.7609  0.0040 -0.0367  11.00000  0.05    0.20
Q92   1  -0.7858 -0.0373 -0.1037  11.00000  0.05    0.20
Q93   1  -0.3565 -0.5565 -0.2213  11.00000  0.05    0.20
Q94   1  -0.1934 -0.6162 -0.2168  11.00000  0.05    0.19
Q95   1  -0.9516 -0.2378 -0.1196  11.00000  0.05    0.19
Q96   1  -0.6622 -0.8217 -0.1766  11.00000  0.05    0.19
Q97   1  -0.3466 -0.5521 -0.2949  11.00000  0.05    0.19
Q98   1  -1.0019 -0.1920 -0.1054  11.00000  0.05    0.19
Q99   1  -0.5977 -0.7534 -0.2595  11.00000  0.05    0.19
Q100  1  -0.3988 -0.9629  0.0598  11.00000  0.05    0.18

  REM The information below was added by Olex2.
  REM
  REM R1 = 0.0384 for 38515 Fo > 4sig(Fo) and 0.0428 for all 864177 data
  REM n/a parameters refined using n/a restraints
  REM Highest difference peak 0.64, deepest hole -0.44
  REM Mean Shift 0.021, Max Shift 0.245.
  
  REM +++ Tabular Listing of Refinement Information +++
  REM R1_all = 0.0428
  REM R1_gt = 0.0384
  REM wR_ref = 0.1269
  REM GOOF = 0.961
  REM Shift_max = 0.245
  REM Shift_mean = 0.021
  REM Reflections_all = 864177
  REM Reflections_gt = 38515
  REM Parameters = n/a
  REM Hole = -0.44
  REM Peak = 0.64
  REM Flack = 0.016(6)
  
  